
Gurobi 10.0.1 (linux64) logging started Sun Nov 26 15:51:18 2023

Set parameter LogFile to value "ArtificialInstance/ExperimentV2/S4T4K1/AdSp/gurobi91.txt"
Gurobi Optimizer version 10.0.1 build v10.0.1rc0 (linux64)

CPU model: AMD EPYC 7H12 64-Core Processor, instruction set [SSE2|AVX|AVX2]
Thread count: 128 physical cores, 128 logical processors, using up to 32 threads

Academic license 656792 - for non-commercial use only - registered to b.___@student.vu.nl
Optimize a model with 4655 rows, 4405 columns and 16709 nonzeros
Model fingerprint: 0x5ba5b1b1
Variable types: 0 continuous, 4405 integer (4405 binary)
Coefficient statistics:
  Matrix range     [1e+00, 1e+00]
  Objective range  [9e-01, 2e+01]
  Bounds range     [1e+00, 1e+00]
  RHS range        [1e+00, 1e+00]
Presolve removed 447 rows and 417 columns
Presolve time: 0.06s
Presolved: 4208 rows, 3988 columns, 15458 nonzeros
Variable types: 0 continuous, 3988 integer (3988 binary)
Found heuristic solution: objective 544.5969491

Root relaxation: objective 5.031728e+01, 3435 iterations, 0.13 seconds (0.11 work units)

    Nodes    |    Current Node    |     Objective Bounds      |     Work
 Expl Unexpl |  Obj  Depth IntInf | Incumbent    BestBd   Gap | It/Node Time

     0     0   50.31728    0  402  544.59695   50.31728  90.8%     -    0s
H    0     0                     138.6764723   50.31728  63.7%     -    0s
H    0     0                     136.3291403   50.31728  63.1%     -    0s
H    0     0                     117.0535062   50.31728  57.0%     -    0s
H    0     0                      56.3786891   50.31728  10.8%     -    0s
     0     0   51.02080    0  277   56.37869   51.02080  9.50%     -    0s
H    0     0                      56.0257959   51.85684  7.44%     -    0s
     0     0   51.85684    0  438   56.02580   51.85684  7.44%     -    0s
H    0     0                      52.2364885   51.85684  0.73%     -    0s

Cutting planes:
  Gomory: 8
  MIR: 4
  Zero half: 63

Explored 1 nodes (5090 simplex iterations) in 0.57 seconds (0.36 work units)
Thread count was 32 (of 128 available processors)

Solution count 7: 52.2365 56.0258 56.3787 ... 544.597

Optimal solution found (tolerance 1.00e-04)
Best objective 5.223648853174e+01, best bound 5.223648853174e+01, gap 0.0000%
